
&CONTROL
  calculation='scf',
  outdir='.',
  prefix='pwscf',
  pseudo_dir=$ESPRESSO_PSEUDO,
  verbosity='low',
/

&SYSTEM
  ibrav=14,
  celldm(1)=19.1618229031d0, celldm(2)=0.5767169625d0, celldm(3)=0.6996469428d0,
  celldm(4)=0.0000000000d0, celldm(5)=0.0000000000d0, celldm(6)=0.0000000000d0,
  nat=21,
  ntyp=2,
  ecutwfc=30,
  ecutrho=120,
  input_dft='lda',
  occupations='smearing',
  smearing='mv',
  degauss=0.005d0,
/

&ELECTRONS
  conv_thr=1d-06,
  mixing_beta=0.7d0,
/

ATOMIC_SPECIES
  B 10.811000d0 B.UPF
  Fe 55.845000d0 Fe.UPF

ATOMIC_POSITIONS {crystal}
   B   0.5145682248d0  -0.0128293877d0   0.0504507872d0
   B   0.6863258786d0  -0.0002193672d0  -0.0052647605d0
   B   0.8460426246d0   0.0025226319d0  -0.0471063081d0
   B   0.6085451716d0   0.2508322215d0   0.0739875420d0
   B   0.7625615627d0   0.2507695161d0  -0.0172921224d0
   B   0.5146509987d0   0.5148554645d0   0.0513174022d0
   B   0.6864051931d0   0.5022416963d0  -0.0053545780d0
   B   0.8458671826d0   0.4993710121d0  -0.0469018027d0
   B   0.5959982673d0   0.7506998756d0  -0.0134911726d0
   B   0.7628827803d0   0.7506604642d0  -0.0382031184d0
   B   0.0051552356d0   0.0022623777d0  -0.0473701985d0
   B   0.1648009499d0  -0.0004617166d0  -0.0054457772d0
   B   0.3366174330d0  -0.0128671481d0   0.0504021322d0
   B   0.0886051195d0   0.2510485891d0  -0.0175965921d0
   B   0.2426380552d0   0.2511170413d0   0.0736827717d0
   B   0.0052570165d0   0.4991288937d0  -0.0470058343d0
   B   0.1647583886d0   0.5020229715d0  -0.0056069140d0
   B   0.3365265717d0   0.5148803050d0   0.0511505863d0
   B   0.0882994322d0   0.7511163267d0  -0.0385979299d0
   B   0.2551945486d0   0.7512085235d0  -0.0138323101d0
  Fe   0.4255426000d0   0.2510952396d0   0.1318025243d0

K_POINTS {automatic}
  1 1 1 0 0 0

