
&CONTROL
  calculation='relax',
  outdir='.',
  prefix='X3_24_Fe',
  pseudo_dir="./",
  verbosity='low',
/

&SYSTEM
  ibrav=8,
  celldm(1)=31.5315619336d0, celldm(2) = 0.700039986134d0, celldm(3) = 0.50000,
  nat=65,
  ntyp=2,
  ecutwfc=30,
  ecutrho=240,
  occupations='smearing',
  smearing='mv',
  degauss=0.005d0,
  nspin = 2
  starting_magnetization = 1.1
/

&ELECTRONS
  conv_thr=1d-06,
  mixing_beta=0.7d0,
/

ATOMIC_SPECIES
  B 10.811000d0  B.pbe-n-rrkjus_psl.1.0.0.UPF 
  Fe 55.845000d0  Fe.pbe-spn-rrkjus_psl.1.0.0.UPF
ATOMIC_POSITIONS {crystal}
B             0.6044880700        0.7527337914        0.4958143112
B             0.7025567908        0.7509823881        0.5021403574
B             0.7985297896        0.7497990165        0.5003480051
B             0.8974353782        0.7491812161        0.5000054188
B             0.5479968554        0.8754814031        0.5012747147
B             0.6486421475        0.8763116305        0.5003650065
B             0.8522198649        0.8755718785        0.5004520823
B             0.9518224037        0.8748562601        0.4995311966
B             0.6013824823        0.0006714111        0.5016438556
B             0.7016484967        0.0000750348        0.4964104940
B             0.7980498786       -0.0003738803        0.4996687437
B             0.8971807151       -0.0005042445        0.4998424893
B             0.5479270356        0.1245751726        0.5005192204
B             0.6483361664        0.1240314163        0.5014138705
B             0.8523793685        0.1258535779        0.5006567868
B             0.9517889207        0.1257979845        0.4996078978
B             0.6035386733        0.2485806778        0.4980121930
B             0.7020121993        0.2500755611        0.5005383366
B             0.7982588406        0.2498835517        0.5008539132
B             0.8973834294        0.2494154495        0.4996986793
B             0.5482185216        0.3701575970        0.4978977336
B             0.6498487389        0.3731752520        0.4965159803
B             0.8520519306        0.3755508040        0.4996831441
B             0.9522226234        0.3757486846        0.5003835000
B             0.6048830615        0.5009793458        0.5034274962
B             0.7032622848        0.4996477183        0.5007900750
B             0.7989154338        0.4994208597        0.4989356050
B             0.8980580183        0.4995917674        0.4996407448
B             0.5481672778        0.6328675182        0.4930763653
B             0.6499006383        0.6268819656        0.4977756614
B             0.8523584105        0.6256943390        0.4993621576
B             0.9520658825        0.6246047278        0.5010010202
B             0.1025439163        0.7491942008        0.5000967051
B             0.2013912653        0.7498096051        0.5001909210
B             0.2972910765        0.7510691571        0.5020824159
B             0.3953126138        0.7530151672        0.4957625302
B             0.0481579314        0.8748465317        0.4995999241
B             0.1477820006        0.8755146947        0.5004017775
B             0.3512236279        0.8766149521        0.5005681192
B             0.4519870646        0.8755870873        0.5012362470
B             0.1028268563       -0.0004614788        0.4997878085
B             0.2019681401       -0.0003372239        0.4997875210
B             0.2983607591        0.0001574081        0.4969378796
B             0.3987142185        0.0007739464        0.5013319807
B             0.0482146173        0.1258028754        0.4995956459
B             0.1476383919        0.1258311838        0.5006148297
B             0.3516176911        0.1240406546        0.5013437577
B             0.4520771017        0.1245718061        0.5006957997
B             0.1026472722        0.2494994722        0.4997856451
B             0.2017502345        0.2499068634        0.5006875285
B             0.2979258495        0.2499434645        0.5002387632
B             0.3964332694        0.2484015508        0.4980078474
B             0.0478101106        0.3757647245        0.5004540107
B             0.1479674552        0.3755186646        0.4997165700
B             0.3499474611        0.3730397408        0.4966387214
B             0.4515098955        0.3698554153        0.4974054461
B             0.1018720833        0.4996298280        0.4996508361
B             0.2007957582        0.4993491999        0.4990529164
B             0.2963189364        0.4995846156        0.5006797714
B             0.3945695290        0.5009824535        0.5010418820
B             0.0479399047        0.6246109394        0.5009382563
B             0.1475901256        0.6256294355        0.4994067283
B             0.3500198395        0.6270722212        0.4979942328
B             0.4518275523        0.6333889071        0.4916809818
Fe            0.4991137237        0.5038436468        0.6027606413

K_POINTS {automatic}
  1 1 1 0 0 0
