
&CONTROL
  calculation='scf',
  outdir='.',
  prefix='X3_Fe_sp',
  pseudo_dir="./",
  verbosity='high',
/

&SYSTEM
  ibrav=8,
  celldm(1)=31.5315921693d0, celldm(2)=0.7000383560d0, celldm(3)=0.4999994007d0,
  nat=65,
  ntyp=2,
  ecutwfc=35,
  ecutrho=240,
  occupations='smearing',
  smearing='mv',
  degauss=0.002d0,
  nspin = 2
  starting_magnetization = 1.0
/

&ELECTRONS
  electron_maxstep = 360
  conv_thr=1d-06,
  mixing_beta=0.1d0,
/

ATOMIC_SPECIES
  B 10.811000d0 B.pbe-n-rrkjus_psl.1.0.0.UPF 
  Fe 55.845000d0  Fe.pbe-spn-rrkjus_psl.1.0.0.UPF

ATOMIC_POSITIONS {crystal}
   B   0.6046300000d0   0.7527700000d0   0.4878100000d0
   B   0.7026400000d0   0.7509400000d0   0.5031200000d0
   B   0.7988000000d0   0.7490700000d0   0.5000200000d0
   B   0.8979400000d0   0.7493600000d0   0.5017500000d0
   B   0.5480400000d0   0.8743500000d0   0.5020700000d0
   B   0.6490000000d0   0.8765500000d0   0.5013400000d0
   B   0.8523100000d0   0.8753000000d0   0.5011200000d0
   B   0.9518900000d0   0.8754600000d0   0.4989800000d0
   B   0.6008800000d0   0.0008000000d0   0.5053500000d0
   B   0.7015900000d0   0.0006300000d0   0.4924700000d0
   B   0.7981200000d0   0.0000000000d0   0.4981900000d0
   B   0.8974300000d0   0.0000000000d0   0.4987800000d0
   B   0.5481000000d0   0.1257200000d0   0.5019400000d0
   B   0.6489100000d0   0.1239400000d0   0.5023300000d0
   B   0.8525700000d0   0.1258000000d0   0.5032600000d0
   B   0.9518600000d0   0.1263200000d0   0.4975400000d0
   B   0.6043900000d0   0.2487100000d0   0.4961900000d0
   B   0.7027100000d0   0.2507900000d0   0.4978500000d0
   B   0.7987900000d0   0.2497600000d0   0.5038700000d0
   B   0.8978500000d0   0.2497700000d0   0.4988100000d0
   B   0.5483800000d0   0.3702800000d0   0.5019200000d0
   B   0.6499300000d0   0.3733000000d0   0.4866300000d0
   B   0.8521800000d0   0.3756200000d0   0.4993100000d0
   B   0.9522300000d0   0.3761100000d0   0.5011500000d0
   B   0.6047800000d0   0.5000300000d0   0.5134700000d0
   B   0.7028400000d0   0.4999100000d0   0.5013900000d0
   B   0.7986700000d0   0.4991100000d0   0.4982700000d0
   B   0.8985000000d0   0.4998100000d0   0.4990100000d0
   B   0.5482100000d0   0.6318800000d0   0.4935700000d0
   B   0.6495200000d0   0.6266200000d0   0.4950300000d0
   B   0.8526500000d0   0.6254200000d0   0.4978500000d0
   B   0.9521200000d0   0.6249800000d0   0.5033000000d0
   B   0.1019200000d0   0.7494100000d0   0.5017600000d0
   B   0.2011300000d0   0.7490400000d0   0.5000400000d0
   B   0.2973100000d0   0.7509600000d0   0.5032000000d0
   B   0.3953500000d0   0.7527500000d0   0.4874900000d0
   B   0.0480200000d0   0.8755100000d0   0.4989100000d0
   B   0.1475800000d0   0.8753000000d0   0.5011200000d0
   B   0.3509700000d0   0.8764900000d0   0.5017200000d0
   B   0.4519300000d0   0.8743600000d0   0.5018700000d0
   B   0.1024700000d0  -0.0000000000d0   0.4989300000d0
   B   0.2018000000d0  -0.0000000000d0   0.4983700000d0
   B   0.2983300000d0   0.0006000000d0   0.4928400000d0
   B   0.3990100000d0   0.0007500000d0   0.5050300000d0
   B   0.0480400000d0   0.1262800000d0   0.4975600000d0
   B   0.1473300000d0   0.1257800000d0   0.5031400000d0
   B   0.3510000000d0   0.1239300000d0   0.5026500000d0
   B   0.4518100000d0   0.1257000000d0   0.5017200000d0
   B   0.1020200000d0   0.2497500000d0   0.4988100000d0
   B   0.2010900000d0   0.2498500000d0   0.5037600000d0
   B   0.2971700000d0   0.2507200000d0   0.4977100000d0
   B   0.3955200000d0   0.2486800000d0   0.4959100000d0
   B   0.0476200000d0   0.3760200000d0   0.5012300000d0
   B   0.1477400000d0   0.3756100000d0   0.4993300000d0
   B   0.3499100000d0   0.3732500000d0   0.4861000000d0
   B   0.4515700000d0   0.3702700000d0   0.5010700000d0
   B   0.1014000000d0   0.4998000000d0   0.4992600000d0
   B   0.2011900000d0   0.4990300000d0   0.4983300000d0
   B   0.2970300000d0   0.4999000000d0   0.5010600000d0
   B   0.3951700000d0   0.4999500000d0   0.5109300000d0
   B   0.0477100000d0   0.6249900000d0   0.5034000000d0
   B   0.1471700000d0   0.6254500000d0   0.4977600000d0
   B   0.3503600000d0   0.6265700000d0   0.4948300000d0
   B   0.4516900000d0   0.6319700000d0   0.4927000000d0
  Fe   0.4998400000d0   0.5035800000d0   0.6112000000d0

K_POINTS {automatic}
  3 3 1 0 0 0

