
&CONTROL
  calculation='scf',
  outdir='.',
  prefix='pwscf',
  pseudo_dir=$ESPRESSO_PSEUDO,
  verbosity='low',
/

&SYSTEM
  ibrav=14,
  celldm(1)=19.1618229031d0, celldm(2)=0.5767169625d0, celldm(3)=0.6996469428d0,
  celldm(4)=0.0000000000d0, celldm(5)=0.0000000000d0, celldm(6)=0.0000000000d0,
  nat=21,
  ntyp=2,
  ecutwfc=30,
  ecutrho=120,
  input_dft='lda',
  occupations='smearing',
  smearing='mv',
  degauss=0.005d0,
/

&ELECTRONS
  conv_thr=1d-06,
  mixing_beta=0.7d0,
/

ATOMIC_SPECIES
  B 10.811000d0 B.UPF
  Fe 55.845000d0 Fe.UPF

ATOMIC_POSITIONS {crystal}
   B   0.5106516353d0   0.0039748845d0  -0.0005572674d0
   B   0.6800516353d0   0.0039748845d0  -0.0005572674d0
   B   0.8494616353d0   0.0039748845d0  -0.0005572674d0
   B   0.5953616353d0   0.2494148845d0  -0.0005572674d0
   B   0.7642616353d0   0.2494148845d0  -0.0005572674d0
   B   0.5106516353d0   0.4999248845d0  -0.0005572674d0
   B   0.6800516353d0   0.4999248845d0  -0.0005572674d0
   B   0.8494616353d0   0.4999248845d0  -0.0005572674d0
   B   0.5953616353d0   0.7453648845d0  -0.0005572674d0
   B   0.7642616353d0   0.7453648845d0  -0.0005572674d0
   B   0.0024416353d0   0.0039748845d0  -0.0005572674d0
   B   0.1718416353d0   0.0039748845d0  -0.0005572674d0
   B   0.3412516353d0   0.0039748845d0  -0.0005572674d0
   B   0.0871416353d0   0.2494148845d0  -0.0005572674d0
   B   0.2560416353d0   0.2494148845d0  -0.0005572674d0
   B   0.0024416353d0   0.4999248845d0  -0.0005572674d0
   B   0.1718416353d0   0.4999248845d0  -0.0005572674d0
   B   0.3412516353d0   0.4999248845d0  -0.0005572674d0
   B   0.0871416353d0   0.7453648845d0  -0.0005572674d0
   B   0.2560416353d0   0.7453648845d0  -0.0005572674d0
  Fe   0.4202305297d0   0.2669378403d0   0.1448696755d0

K_POINTS {automatic}
  1 1 1 0 0 0

