
&CONTROL
  calculation='relax',
  outdir='./',
  prefix='b_12_22_Fe',
  pseudo_dir="./",
  verbosity='low',
/

&SYSTEM
  ibrav=14,
  celldm(1)=19.1618229031d0, celldm(2)=0.5767169625d0, celldm(3)=0.6996469428d0,
  nat=21,
  ntyp=2,
  ecutwfc=35,
  ecutrho=240,
  occupations='smearing',
  smearing='mv',
  degauss=0.001d0,
  nspin=2,
  starting_magnetization=2.0
/

&ELECTRONS
  conv_thr=1d-06,
  mixing_beta=0.1d0,
  electron_maxstep = 300
/


&ions
/

ATOMIC_SPECIES
  B 10.811000d0  B.pbe-n-rrkjus_psl.1.0.0.UPF 
  Fe 55.845000d0 Fe.pbe-spn-rrkjus_psl.1.0.0.UPF
ATOMIC_POSITIONS {crystal}
   B   0.5106516353d0   0.0039748845d0  -0.0005572674d0
   B   0.6800516353d0   0.0039748845d0  -0.0005572674d0
   B   0.8494616353d0   0.0039748845d0  -0.0005572674d0
   B   0.5953616353d0   0.2494148845d0  -0.0005572674d0
   B   0.7642616353d0   0.2494148845d0  -0.0005572674d0
   B   0.5106516353d0   0.4999248845d0  -0.0005572674d0
   B   0.6800516353d0   0.4999248845d0  -0.0005572674d0
   B   0.8494616353d0   0.4999248845d0  -0.0005572674d0
   B   0.5953616353d0   0.7453648845d0  -0.0005572674d0
   B   0.7642616353d0   0.7453648845d0  -0.0005572674d0
   B   0.0024416353d0   0.0039748845d0  -0.0005572674d0
   B   0.1718416353d0   0.0039748845d0  -0.0005572674d0
   B   0.3412516353d0   0.0039748845d0  -0.0005572674d0
   B   0.0871416353d0   0.2494148845d0  -0.0005572674d0
   B   0.2560416353d0   0.2494148845d0  -0.0005572674d0
   B   0.0024416353d0   0.4999248845d0  -0.0005572674d0
   B   0.1718416353d0   0.4999248845d0  -0.0005572674d0
   B   0.3412516353d0   0.4999248845d0  -0.0005572674d0
   B   0.0871416353d0   0.7453648845d0  -0.0005572674d0
   B   0.2560416353d0   0.7453648845d0  -0.0005572674d0
  Fe   0.4282213666d0   0.2452176613d0  -0.588614884d0

K_POINTS {gamma}


