
&CONTROL
  calculation='scf',
  outdir='.',
  prefix='pwscf',
  pseudo_dir=$ESPRESSO_PSEUDO,
  verbosity='low',
/

&SYSTEM
  ibrav=14,
  celldm(1)=18.8521667111d0, celldm(2)=0.5921931505d0, celldm(3)=0.7016744056d0,
  celldm(4)=0.0000000000d0, celldm(5)=0.0000000000d0, celldm(6)=0.0000000000d0,
  nat=20,
  ntyp=1,
  ecutwfc=30,
  ecutrho=120,
  input_dft='lda',
  occupations='smearing',
  smearing='mv',
  degauss=0.005d0,
/

&ELECTRONS
  conv_thr=1d-06,
  mixing_beta=0.7d0,
/

ATOMIC_SPECIES
  B 10.811000d0 B.UPF

ATOMIC_POSITIONS {crystal}
   B   0.5082218959d0   0.0041997725d0   0.0000000000d0
   B   0.6776244512d0   0.0041997725d0   0.0000000000d0
   B   0.8470320887d0   0.0041997725d0   0.0000000000d0
   B   0.5929257146d0   0.2496377061d0   0.0000000000d0
   B   0.7618251393d0   0.2496377061d0   0.0000000000d0
   B   0.5082218959d0   0.5001542435d0   0.0000000000d0
   B   0.6776244512d0   0.5001542435d0   0.0000000000d0
   B   0.8470320887d0   0.5001542435d0   0.0000000000d0
   B   0.5929257146d0   0.7455922069d0   0.0000000000d0
   B   0.7618251393d0   0.7455922069d0   0.0000000000d0
   B   0.0000093308d0   0.0041997725d0   0.0000000000d0
   B   0.1694117031d0   0.0041997725d0   0.0000000000d0
   B   0.3388193406d0   0.0041997725d0   0.0000000000d0
   B   0.0847131698d0   0.2496377061d0   0.0000000000d0
   B   0.2536123912d0   0.2496377061d0   0.0000000000d0
   B   0.0000093308d0   0.5001542435d0   0.0000000000d0
   B   0.1694117031d0   0.5001542435d0   0.0000000000d0
   B   0.3388193406d0   0.5001542435d0   0.0000000000d0
   B   0.0847131698d0   0.7455922069d0   0.0000000000d0
   B   0.2536123912d0   0.7455922069d0   0.0000000000d0

K_POINTS {automatic}
  1 1 1 0 0 0

