
&CONTROL
  calculation='scf',
  outdir='.',
  prefix='pwscf',
  pseudo_dir=$ESPRESSO_PSEUDO,
  verbosity='low',
/

&SYSTEM
  ibrav=0,
  celldm(1)=28.2817734611d0,
  nat=61,
  ntyp=2,
  ecutwfc=30,
  ecutrho=120,
  input_dft='lda',
  occupations='smearing',
  smearing='mv',
  degauss=0.005d0,
/

&ELECTRONS
  conv_thr=1d-06,
  mixing_beta=0.7d0,
/

ATOMIC_SPECIES
  B 10.811000d0 B.UPF
  Fe 55.845000d0 Fe.UPF

ATOMIC_POSITIONS {crystal}
   B   0.0000000000d0   0.0000000000d0   0.0000000000d0
   B   0.1111100000d0   0.0000000000d0   0.0000000000d0
   B   0.2222233333d0   0.0000000000d0   0.0000000000d0
   B   0.0555566667d0   0.1250000000d0   0.0000000000d0
   B   0.1666666667d0   0.1250000000d0   0.0000000000d0
   B   0.0000000000d0   0.2500000000d0   0.0000000000d0
   B   0.1111100000d0   0.2500000000d0   0.0000000000d0
   B   0.2222233333d0   0.2500000000d0   0.0000000000d0
   B   0.0555566667d0   0.3750000000d0   0.0000000000d0
   B   0.1666666667d0   0.3750000000d0   0.0000000000d0
   B   0.0000000000d0   0.5000000000d0   0.0000000000d0
   B   0.1111100000d0   0.5000000000d0   0.0000000000d0
   B   0.2222233333d0   0.5000000000d0   0.0000000000d0
   B   0.0555566667d0   0.6250000000d0   0.0000000000d0
   B   0.1666666667d0   0.6250000000d0   0.0000000000d0
   B   0.0000000000d0   0.7500000000d0   0.0000000000d0
   B   0.1111100000d0   0.7500000000d0   0.0000000000d0
   B   0.2222233333d0   0.7500000000d0   0.0000000000d0
   B   0.0555566667d0   0.8750000000d0   0.0000000000d0
   B   0.1666666667d0   0.8750000000d0   0.0000000000d0
   B   0.3333333333d0   0.0000000000d0   0.0000000000d0
   B   0.4444433333d0   0.0000000000d0   0.0000000000d0
   B   0.5555566667d0   0.0000000000d0   0.0000000000d0
   B   0.3888900000d0   0.1250000000d0   0.0000000000d0
   B   0.5000000000d0   0.1250000000d0   0.0000000000d0
   B   0.3333333333d0   0.2500000000d0   0.0000000000d0
   B   0.4444433333d0   0.2500000000d0   0.0000000000d0
   B   0.5555566667d0   0.2500000000d0   0.0000000000d0
   B   0.3888900000d0   0.3750000000d0   0.0000000000d0
   B   0.5000000000d0   0.3750000000d0   0.0000000000d0
   B   0.3333333333d0   0.5000000000d0   0.0000000000d0
   B   0.4444433333d0   0.5000000000d0   0.0000000000d0
   B   0.5555566667d0   0.5000000000d0   0.0000000000d0
   B   0.3888900000d0   0.6250000000d0   0.0000000000d0
   B   0.5000000000d0   0.6250000000d0   0.0000000000d0
   B   0.3333333333d0   0.7500000000d0   0.0000000000d0
   B   0.4444433333d0   0.7500000000d0   0.0000000000d0
   B   0.5555566667d0   0.7500000000d0   0.0000000000d0
   B   0.3888900000d0   0.8750000000d0   0.0000000000d0
   B   0.5000000000d0   0.8750000000d0   0.0000000000d0
   B   0.6666666667d0   0.0000000000d0   0.0000000000d0
   B   0.7777766667d0   0.0000000000d0   0.0000000000d0
   B   0.8888900000d0   0.0000000000d0   0.0000000000d0
   B   0.7222233333d0   0.1250000000d0   0.0000000000d0
   B   0.8333333333d0   0.1250000000d0   0.0000000000d0
   B   0.6666666667d0   0.2500000000d0   0.0000000000d0
   B   0.7777766667d0   0.2500000000d0   0.0000000000d0
   B   0.8888900000d0   0.2500000000d0   0.0000000000d0
   B   0.7222233333d0   0.3750000000d0   0.0000000000d0
   B   0.8333333333d0   0.3750000000d0   0.0000000000d0
   B   0.6666666667d0   0.5000000000d0   0.0000000000d0
   B   0.7777766667d0   0.5000000000d0   0.0000000000d0
   B   0.8888900000d0   0.5000000000d0   0.0000000000d0
   B   0.7222233333d0   0.6250000000d0   0.0000000000d0
   B   0.8333333333d0   0.6250000000d0   0.0000000000d0
   B   0.6666666667d0   0.7500000000d0   0.0000000000d0
   B   0.7777766667d0   0.7500000000d0   0.0000000000d0
   B   0.8888900000d0   0.7500000000d0   0.0000000000d0
   B   0.7222233333d0   0.8750000000d0   0.0000000000d0
   B   0.8333333333d0   0.8750000000d0   0.0000000000d0
  Fe   0.6144473899d0   0.3764672095d0   0.1424855899d0

K_POINTS {automatic}
  1 1 1 0 0 0

CELL_PARAMETERS {alat}
  1.000000000000d0  0.000000000000d0  0.000000000000d0
  0.000000000000d0  0.789489825986d0  0.000000000000d0
  0.000000000000d0  0.000000000000d0  0.399950020279d0

