&CONTROL
  calculation='scf',
  outdir='.',
  prefix='b12_34scfsp',
  pseudo_dir="./",
  verbosity='high',
/

&SYSTEM
  ibrav=8,
  celldm(1)=28.2817734611d0, celldm(2)=0.789489825986d0, celldm(3)=0.4
  nat=61,
  ntyp=2,
  ecutwfc=35,
  ecutrho=240,
  occupations='smearing',
  smearing='mv',
  degauss=0.004d0,
  nspin=2,
  starting_magnetization = 1.1
/

&ELECTRONS
  electron_maxstep=200,
  conv_thr=1d-06,
  mixing_beta=0.1d0,
/

ATOMIC_SPECIES
  B 10.811000d0 B.pbe-n-rrkjus_psl.1.0.0.UPF 
  Fe 55.845000d0  Fe.pbe-spn-rrkjus_psl.1.0.0.UPF

ATOMIC_POSITIONS {crystal}
B            -0.0024588617        0.0005155361       -0.0531263738
B             0.1110862784        0.0000494391       -0.0519814226
B             0.2246650146        0.0006603035       -0.0523666283
B             0.0534799853        0.1254101702       -0.0699948473
B             0.1687379557        0.1254822593       -0.0693098689
B            -0.0022409028        0.2505163962       -0.0846028156
B             0.1111907264        0.2499916930       -0.0920554351
B             0.2246381128        0.2506319501       -0.0836363638
B             0.0533018654        0.3750080170       -0.1134189751
B             0.1690052169        0.3750090399       -0.1132074190
B            -0.0021900676        0.4995250927       -0.0848347056
B             0.1111944384        0.5000903608       -0.0922802730
B             0.2245914961        0.4994137122       -0.0838790656
B             0.0534739875        0.6246681366       -0.0700678748
B             0.1687475299        0.6245972355       -0.0693715119
B            -0.0024992044        0.7495263576       -0.0531771453
B             0.1110875500        0.7499773534       -0.0518344866
B             0.2247073413        0.7493793811       -0.0523844019
B             0.0538381153        0.8750014651       -0.0531902505
B             0.1684122026        0.8750011333       -0.0529736498
B             0.3336158599        0.0001460192       -0.0309974626
B             0.4448358593       -0.0013538294        0.0157046437
B             0.5566265662       -0.0002033369        0.0629284239
B             0.3889781971        0.1253028802       -0.0095835106
B             0.5006050497        0.1255047684        0.0635331188
B             0.3333091318        0.2494356893       -0.0415336799
B             0.4388387470        0.2488216084        0.0397380323
B             0.5493892038        0.2444648664        0.1489862465
B             0.3850748327        0.3750130117        0.0094013188
B             0.4897478759        0.3750243345        0.1400317829
B             0.3332675841        0.5006004609       -0.0416979325
B             0.4387864769        0.5011479479        0.0399933311
B             0.5494891239        0.5056429960        0.1490212986
B             0.3889841404        0.6246973258       -0.0094244619
B             0.5006086382        0.6245213491        0.0636218725
B             0.3336533978        0.7499190242       -0.0309166328
B             0.4448467384        0.7514070862        0.0155731456
B             0.5566228758        0.7502863342        0.0627339746
B             0.3877183891        0.8750437847       -0.0086528249
B             0.5019386008        0.8750455270        0.0348855122
B             0.6656525249       -0.0004621214        0.0630995899
B             0.7774225957       -0.0013405064        0.0151875153
B             0.8886270664        0.0000732556       -0.0319242390
B             0.7218547733        0.1253392152        0.0634183452
B             0.8334118305        0.1252928715       -0.0105981629
B             0.6728011167        0.2440319062        0.1487549536
B             0.7836666025        0.2487994262        0.0396756741
B             0.8891205477        0.2494342165       -0.0423310421
B             0.7325741608        0.3750242224        0.1390247950
B             0.8373608653        0.3750155905        0.0092746954
B             0.6727177114        0.5060708447        0.1487704757
B             0.7837267446        0.5011848772        0.0399356611
B             0.8891627430        0.5006041576       -0.0425238079
B             0.7218454691        0.6246958552        0.0634952908
B             0.8334078887        0.6247142583       -0.0104542608
B             0.6656567278        0.7505540740        0.0629030151
B             0.7774149013        0.7513975978        0.0150849085
B             0.8885919632        0.7499926750       -0.0318317462
B             0.7204726278        0.8750473905        0.0351504611
B             0.8345954690        0.8750435667       -0.0089793759
Fe            0.6113369915        0.3750309556        0.2517001619

K_POINTS {automatic}
  3 3 1 0 0 0
