
&CONTROL
  calculation='scf',
  outdir='.',
  prefix='pwscf',
  pseudo_dir=$ESPRESSO_PSEUDO,
  verbosity='low',
/

&SYSTEM
  ibrav=0,
  celldm(1)=32.0699260093d0,
  nat=64,
  ntyp=1,
  ecutwfc=30,
  ecutrho=120,
  input_dft='lda',
  occupations='smearing',
  smearing='mv',
  degauss=0.005d0,
/

&ELECTRONS
  conv_thr=1d-06,
  mixing_beta=0.7d0,
/

ATOMIC_SPECIES
  B 10.811000d0 B.UPF

ATOMIC_POSITIONS {crystal}
   B   0.6000000000d0   0.7500000000d0   0.5000000000d0
   B   0.7000000000d0   0.7500000000d0   0.5000000000d0
   B   0.8000000000d0   0.7500000000d0   0.5000000000d0
   B   0.9000000000d0   0.7500000000d0   0.5000000000d0
   B   0.5500000000d0   0.8750000000d0   0.5000000000d0
   B   0.6500000000d0   0.8750000000d0   0.5000000000d0
   B   0.8500000000d0   0.8750000000d0   0.5000000000d0
   B   0.9500000000d0   0.8750000000d0   0.5000000000d0
   B   0.6000000000d0   0.0000000000d0   0.5000000000d0
   B   0.7000000000d0   0.0000000000d0   0.5000000000d0
   B   0.8000000000d0   0.0000000000d0   0.5000000000d0
   B   0.9000000000d0   0.0000000000d0   0.5000000000d0
   B   0.5500000000d0   0.1250000000d0   0.5000000000d0
   B   0.6500000000d0   0.1250000000d0   0.5000000000d0
   B   0.8500000000d0   0.1250000000d0   0.5000000000d0
   B   0.9500000000d0   0.1250000000d0   0.5000000000d0
   B   0.6000000000d0   0.2500000000d0   0.5000000000d0
   B   0.7000000000d0   0.2500000000d0   0.5000000000d0
   B   0.8000000000d0   0.2500000000d0   0.5000000000d0
   B   0.9000000000d0   0.2500000000d0   0.5000000000d0
   B   0.5500000000d0   0.3750000000d0   0.5000000000d0
   B   0.6500000000d0   0.3750000000d0   0.5000000000d0
   B   0.8500000000d0   0.3750000000d0   0.5000000000d0
   B   0.9500000000d0   0.3750000000d0   0.5000000000d0
   B   0.6000000000d0   0.5000000000d0   0.5000000000d0
   B   0.7000000000d0   0.5000000000d0   0.5000000000d0
   B   0.8000000000d0   0.5000000000d0   0.5000000000d0
   B   0.9000000000d0   0.5000000000d0   0.5000000000d0
   B   0.5500000000d0   0.6250000000d0   0.5000000000d0
   B   0.6500000000d0   0.6250000000d0   0.5000000000d0
   B   0.8500000000d0   0.6250000000d0   0.5000000000d0
   B   0.9500000000d0   0.6250000000d0   0.5000000000d0
   B   0.1000000000d0   0.7500000000d0   0.5000000000d0
   B   0.2000000000d0   0.7500000000d0   0.5000000000d0
   B   0.3000000000d0   0.7500000000d0   0.5000000000d0
   B   0.4000000000d0   0.7500000000d0   0.5000000000d0
   B   0.0500000000d0   0.8750000000d0   0.5000000000d0
   B   0.1500000000d0   0.8750000000d0   0.5000000000d0
   B   0.3500000000d0   0.8750000000d0   0.5000000000d0
   B   0.4500000000d0   0.8750000000d0   0.5000000000d0
   B   0.1000000000d0   0.0000000000d0   0.5000000000d0
   B   0.2000000000d0   0.0000000000d0   0.5000000000d0
   B   0.3000000000d0   0.0000000000d0   0.5000000000d0
   B   0.4000000000d0   0.0000000000d0   0.5000000000d0
   B   0.0500000000d0   0.1250000000d0   0.5000000000d0
   B   0.1500000000d0   0.1250000000d0   0.5000000000d0
   B   0.3500000000d0   0.1250000000d0   0.5000000000d0
   B   0.4500000000d0   0.1250000000d0   0.5000000000d0
   B   0.1000000000d0   0.2500000000d0   0.5000000000d0
   B   0.2000000000d0   0.2500000000d0   0.5000000000d0
   B   0.3000000000d0   0.2500000000d0   0.5000000000d0
   B   0.4000000000d0   0.2500000000d0   0.5000000000d0
   B   0.0500000000d0   0.3750000000d0   0.5000000000d0
   B   0.1500000000d0   0.3750000000d0   0.5000000000d0
   B   0.3500000000d0   0.3750000000d0   0.5000000000d0
   B   0.4500000000d0   0.3750000000d0   0.5000000000d0
   B   0.1000000000d0   0.5000000000d0   0.5000000000d0
   B   0.2000000000d0   0.5000000000d0   0.5000000000d0
   B   0.3000000000d0   0.5000000000d0   0.5000000000d0
   B   0.4000000000d0   0.5000000000d0   0.5000000000d0
   B   0.0500000000d0   0.6250000000d0   0.5000000000d0
   B   0.1500000000d0   0.6250000000d0   0.5000000000d0
   B   0.3500000000d0   0.6250000000d0   0.5000000000d0
   B   0.4500000000d0   0.6250000000d0   0.5000000000d0

K_POINTS {automatic}
  1 1 1 0 0 0

CELL_PARAMETERS {alat}
  1.000000000000d0  0.000000000000d0  0.000000000000d0
  0.000000000000d0  0.700476127230d0  0.000000000000d0
  0.000000000000d0  0.000000000000d0  0.178571458034d0

