&CONTROL
  calculation='relax',
  outdir='.',
  prefix='X3_Fe_relax2',
  pseudo_dir="./",
  verbosity='high',
/

&SYSTEM
  ibrav=8,
  celldm(1)=31.5315921693d0, celldm(2)=0.7000383560d0, celldm(3)=0.5999994007d0
  nat=65,
  ntyp=2,
  ecutwfc=35,
  ecutrho=240,
  occupations='smearing',
  smearing='mv',
  degauss=0.002d0,
  nspin = 2
  starting_magnetization = 1.0
/

&ELECTRONS
  electron_maxstep = 360
  conv_thr=1d-06,
  mixing_beta=0.1d0,
/


&ions
/

ATOMIC_SPECIES
  B 10.811000d0 B.pbe-n-rrkjus_psl.1.0.0.UPF 
  Fe 55.845000d0  Fe.pbe-spn-rrkjus_psl.1.0.0.UPF

ATOMIC_POSITIONS {crystal}
B             0.6070245150        0.7534685561        0.4871986371
B             0.7046852350        0.7532911414        0.5012705191
B             0.8001121869        0.7514450799        0.5015437881
B             0.8986497456        0.7504264669        0.5009442383
B             0.5482139632        0.8786717486        0.5011266389
B             0.6487450914        0.8773433460        0.4989881934
B             0.8527209641        0.8752931529        0.5001060951
B             0.9523222014        0.8756495578        0.4997428444
B             0.6041601235        0.0003547255        0.5059299491
B             0.7029022547        0.0005168137        0.4969172755
B             0.7985739311        0.0002637481        0.4983163537
B             0.8977515537        0.0002782699        0.4989600750
B             0.5481729537        0.1221852354        0.5013544972
B             0.6486345010        0.1235408868        0.5006558314
B             0.8527267870        0.1246420617        0.5005507979
B             0.9523214083        0.1244861803        0.4986403904
B             0.6066572146        0.2476307960        0.4937250481
B             0.7046151177        0.2474758528        0.4989308287
B             0.8000610285        0.2492331074        0.5015311077
B             0.8985809858        0.2500655922        0.4992882983
B             0.5499872538        0.3622638934        0.4971087062
B             0.6558215359        0.3715779652        0.4917767413
B             0.8526673211        0.3745717469        0.5012538756
B             0.9524084461        0.3751349680        0.5004676625
B             0.6101080771        0.4996301964        0.5062948427
B             0.7065964034        0.5002236998        0.4969331717
B             0.8011669840        0.5003755342        0.4986300263
B             0.8996008962        0.5004362195        0.4989173066
B             0.5494493490        0.6395094178        0.4871352900
B             0.6550717561        0.6289619767        0.4971938874
B             0.8527406067        0.6254814989        0.4997512103
B             0.9523524058        0.6248867553        0.5020672216
B             0.1012436053        0.7504050451        0.5010283270
B             0.1997899321        0.7513893909        0.5015458922
B             0.2952270027        0.7533207528        0.5013391447
B             0.3928860167        0.7534886888        0.4867593143
B             0.0475909826        0.8756123589        0.4997801357
B             0.1471926565        0.8752837704        0.5000808193
B             0.3511915934        0.8773176628        0.4993506421
B             0.4517204205        0.8787009516        0.5010197693
B             0.1021519016        0.0002596953        0.4990726154
B             0.2013238441        0.0002685955        0.4984719664
B             0.2970014938        0.0004830915        0.4973015795
B             0.3957658465        0.0003404785        0.5056611891
B             0.0475888000        0.1245132238        0.4986780124
B             0.1471801148        0.1246411978        0.5004591781
B             0.3512782462        0.1235261965        0.5009743966
B             0.4517516458        0.1221200232        0.5012094737
B             0.1013116658        0.2500511612        0.4993488306
B             0.1998349525        0.2492404640        0.5014379123
B             0.2952808641        0.2473931697        0.4987957787
B             0.3932535671        0.2475704587        0.4932546624
B             0.0474654537        0.3751560682        0.5005508251
B             0.1472090799        0.3745815258        0.5012686189
B             0.3440734424        0.3715462248        0.4912367453
B             0.4499016909        0.3622448167        0.4962088281
B             0.1002584429        0.5004273066        0.4991148799
B             0.1986943053        0.5003724179        0.4985400123
B             0.2932573894        0.5002031416        0.4965690277
B             0.3898163252        0.4995925876        0.5039919658
B             0.0475425432        0.6248680028        0.5021508912
B             0.1471579315        0.6254717897        0.4997481219
B             0.3449014667        0.6289245045        0.4969181800
B             0.4504785802        0.6395299094        0.4862233595
Fe            0.4997353992        0.5031991357        0.5528875551

K_POINTS {automatic}
  2 2 1 0 0 0

